sheet01/Exercise_01_02/tmp.cnf
p cnf 9 37
-6 0
-9 0
-8 0
-7 0
-5 0
-2 1 0
-4 -5 1 0
-5 -6 1 0
2 4 5 -1 0
2 4 6 -1 0
2 5 -1 0
2 5 6 -1 0
-1 -9 2 0
1 -2 0
9 -2 0
-1 3 0
1 -3 0
-1 4 0
-7 -8 4 0
1 7 -4 0
1 8 -4 0
2 5 7 -1 0
2 5 8 -1 0
2 6 7 -1 0
2 6 8 -1 0
2 5 7 -4 0
2 5 8 -4 0
2 6 7 -4 0
2 6 8 -4 0
4 5 -1 0
4 6 -1 0
5 -1 0
5 6 -1 0
4 5 -2 0
4 6 -2 0
5 -2 0
5 6 -2 0