sheet01/Exercise_01_01/tmp.txt
And(Impl(heinzfo, Not(Or(heinzso, heinzno))), And(Impl(heinzso, Not(Or(heinzfo, heinzno))), And(Impl(heinzno, And(Not(Or(heinzfo, heinzso)), Not(heinzft))), And(Impl(heinzft, Not(Or(heinzst, heinznt))), And(Impl(heinzst, Not(Or(heinzft, heinznt))), And(Impl(heinznt, Not(Or(heinzft, heinzst))), And(Impl(udofo, Not(Or(udoso, udono))), And(Impl(udoso, Not(Or(udofo, udono))), And(Impl(udono, And(Not(Or(udofo, udoso)), Not(udoft))), And(Impl(udoft, Not(Or(udost, udont))), And(Impl(udost, Not(Or(udoft, udont))), And(Impl(udont, Not(Or(udoft, udost))), And(Impl(irafo, Not(Or(iraso, irano))), And(Impl(iraso, Not(Or(irafo, irano))), And(Impl(irano, And(Not(Or(irafo, iraso)), Not(iraft))), And(Impl(iraft, Not(Or(irast, irant))), And(Impl(irast, Not(Or(iraft, irant))), And(Impl(irant, Not(Or(iraft, irast))), And(Impl(norafo, BOT), And(Impl(noraso, BOT), And(Impl(norano, TOP), And(Impl(noraft, BOT), And(Impl(norast, BOT), And(Impl(norant, TOP), And(Impl(fridafo, Not(fridaso)), And(Impl(fridaso, Not(fridafo)), And(Impl(fridano, BOT), And(Impl(fridaft, Not(fridast)), And(Impl(fridast, Not(fridaft)), And(Impl(fridant, BOT), And(Impl(fritzfo, Not(fritzso)), And(Impl(fritzso, Not(fritzfo)), And(Impl(fritzno, BOT), And(Impl(fritzft, Not(fritzst)), And(Impl(fritzst, Not(fritzft)), And(Impl(firtznt, BOT), And(Impl(And(fridafo, fritzfo), Not(Or(And(heinzfo, udofo), Or(And(heinzfo, irafo), And(udofo, irafo))))), And(Impl(And(heinzfo, udofo), Not(Or(And(fridafo, fritzfo), Or(And(heinzfo, irafo), And(udofo, irafo))))), And(Impl(And(heinzfo, irafo), Not(Or(And(heinzfo, udofo), Or(And(fridafo, fritzfo), And(udofo, irafo))))), And(Impl(And(udofo, irafo), Not(Or(And(heinzfo, udofo), Or(And(heinzfo, irafo), And(fridafo, fritzfo))))), And(Impl(And(fridaso, fritzso), Not(Or(And(heinzso, udoso), Or(And(heinzso, iraso), And(udoso, iraso))))), And(Impl(And(heinzso, udoso), Not(Or(And(fridaso, fritzso), Or(And(heinzso, iraso), And(udoso, iraso))))), And(Impl(And(heinzso, iraso), Not(Or(And(heinzso, udoso), Or(And(fridaso, fritzso), And(udoso, iraso))))), And(Impl(And(udoso, iraso), Not(Or(And(heinzso, udoso), Or(And(heinzso, iraso), And(fridaso, fritzso))))), And(Impl(And(fridaft, fritzft), Not(Or(And(heinzft, udoft), Or(And(heinzft, iraft), And(udoft, iraft))))), And(Impl(And(heinzft, udoft), Not(Or(And(fridaft, fritzft), Or(And(heinzft, iraft), And(udoft, iraft))))), And(Impl(And(heinzft, iraft), Not(Or(And(heinzft, udoft), Or(And(fridaft, fritzft), And(udoft, iraft))))), And(Impl(And(udoft, iraft), Not(Or(And(heinzft, udoft), Or(And(heinzft, iraft), And(fridaft, fritzft))))), And(Impl(And(fridast, fritzst), Not(Or(And(heinzst, udost), Or(And(heinzst, irast), And(udost, irast))))), And(Impl(And(heinzst, udost), Not(Or(And(fridast, fritzst), Or(And(heinzst, irast), And(udost, irast))))), And(Impl(And(heinzst, irast), Not(Or(And(heinzst, udost), Or(And(fridast, fritzst), And(udost, irast))))), And(Impl(And(udost, irast), Not(Or(And(heinzst, udost), Or(And(heinzst, irast), And(fridast, fritzst))))), And(Impl(And(heinzno, udono), Not(Or(And(heinzno, irano), Or(And(heinzno, norano), Or(And(udono, irano), And(udono, norano)))))), And(Impl(And(heinzno, irano), Not(Or(And(heinzno, udono), Or(And(heinzno, norano), Or(And(udono, irano), And(udono, norano))))))), And(Impl(And(heinzno, norano), Not(Or(And(heinzno, irano), Or(And(heinzno, udono), Or(And(udono, irano), And(udono, norano))))))), And(Impl(And(udono, irano), Not(Or(And(heinzno, irano), Or(And(heinzno, norano), Or(And(heinzno, udono), And(udono, norano)))))), And(Impl(And(udono, norano), Not(Or(And(heinzno, irano), Or(And(heinzno, norano), Or(And(udono, irano), And(heinzno, udono)))))), And(Impl(And(heinznt, udont), Not(Or(And(heinznt, irant), Or(And(heinznt, norant), Or(And(udont, irant), And(udont, norant)))))), And(Impl(And(heinznt, irant), Not(Or(And(heinznt, udont), Or(And(heinznt, norant), Or(And(udont, irant), And(udont, norant))))))), And(Impl(And(heinznt, norant), Not(Or(And(heinznt, irant), Or(And(heinznt, udont), Or(And(udont, irant), And(udont, norant))))))), And(Impl(And(udont, irant), Not(Or(And(heinznt, irant), Or(And(heinznt, norant), Or(And(heinznt, udont), And(udont, norant)))))), Impl(And(udont, norant), Not(Or(And(heinznt, irant), Or(And(heinznt, norant), Or(And(udont, irant), And(heinznt, udont)))))))))))))))))))))))))))))))))))))))))))))))))))))))))))))))